# Objective value = 2.9147981018505413e+02
x[0] 1
x[1] 1.0000000685314370e+00
x[2] 1
x[3] 0
x[4] 0
x[5] 0
x[6] 0
x[7] 1.0000000680791750e+00
x[8] 0
x[9] 1
x[10] 1
x[11] 0
x[12] 0
x[13] 1
x[14] 0
x[15] 1
x[16] 0
x[17] 1
x[18] 0
x[19] 1
x[20] 0
x[21] 1
x[22] 0
x[23] 1
x[24] 1
x[25] 2.1554949377113896e-07
x[26] 0
x[27] 1
x[28] 0
x[29] 0
x[30] 0
x[31] 1
x[32] -6.86274508332474e-08
x[33] 0
x[34] 0
x[35] 0
x[36] 1.0000000685154169e+00
x[37] 0
x[38] 0
x[39] 9.9999978764705921e-01
x[40] 1
x[41] 0
x[42] 1
x[43] 0
x[44] 1
x[45] 0
x[46] 0
x[47] 1
x[48] 1
x[49] 7.7889179750556825e-08
x[50] 0
x[51] 0
x[52] 1
x[53] 0
x[54] 0
x[55] 1
x[56] 1
x[57] 1
x[58] 7.8290116188337146e-08
x[59] 1
x[60] 1.0000000684738946e+00
x[61] 0
x[62] 0
x[63] 1
x[64] 1.0000000684060972e+00
x[65] 1
x[66] 0
x[67] 1
x[68] 1
x[69] 0
x[70] 0
x[71] 1
x[72] 0
x[73] 1
x[74] 0
x[75] 1
x[76] 1
x[77] 0
x[78] 4.3128852564504692e-07
x[79] 1
x[80] -6.3627450833247389e-08
x[81] 1
x[82] 1
x[83] 1
x[84] 0
x[85] -6.86274508332474e-08
x[86] 1
x[87] 0
x[88] 0
x[89] 1
x[90] -6.8627450611202789e-08
x[91] 0
x[92] 1
x[93] 1
x[94] 1
x[95] 1
x[96] 1
x[97] 0
x[98] 0
x[99] 1
x[100] -6.86274508332474e-08
x[101] 0
x[102] 0
x[103] 0
x[104] 0
x[105] 0
x[106] 1
x[107] 1
x[108] 1
x[109] 1
x[110] 1.0000000685430377e+00
x[111] -6.5294117242510525e-08
x[112] 1
x[113] 2.1559752070344763e-07
x[114] 1
x[115] 0
x[116] 0
x[117] 0
x[118] 1
x[119] 2.1547399940580050e-07
x[120] 1
x[121] 0
x[122] 9.9999992504321711e-01
x[123] 1
x[124] 1
x[125] 1
x[126] 0
x[127] 0
x[128] 0
x[129] 0
x[130] 0
x[131] 0
x[132] 0
x[133] 0
x[134] -6.5294117277869453e-08
x[135] 1.0000000685564123e+00
x[136] 0
x[137] 1
x[138] 1
x[139] 1
x[140] -6.3627450833247389e-08
x[141] 1
x[142] 0
x[143] 1
x[144] 0
x[145] 1
x[146] 1
x[147] 0
x[148] 0
x[149] 0
x[150] 0
x[151] -6.5294117499914058e-08
x[152] 0
x[153] 1
x[154] 0
x[155] 1.0000000684873109e+00
x[156] 1
x[157] 1
x[158] 1.0000000685335630e+00
x[159] 1
x[160] 1
x[161] 1.0000000685417896e+00
x[162] 0
x[163] 0
x[164] 0
x[165] -6.86274508332474e-08
x[166] 1
x[167] 0
x[168] 1
x[169] 1
x[170] 0
x[171] 0
x[172] 1
x[173] 1.0000000685552026e+00
x[174] 1
x[175] 1
x[176] 0
x[177] 0
x[178] 0
x[179] 1
x[180] 0
x[181] 1
x[182] -1.3725490144445018e-07
x[183] 1
x[184] 0
x[185] 1
x[186] 1
x[187] 1
x[188] 1.0000000685147472e+00
x[189] 1
x[190] 0
x[191] 0
x[192] 0
x[193] 1
x[194] 0
x[195] 0
x[196] 1
x[197] 1
x[198] 1
x[199] 1
x[200] 1
x[201] 0
x[202] 0
x[203] 1
x[204] 1
x[205] 1
x[206] 0
x[207] 0
x[208] 1
x[209] 0
x[210] 1
x[211] 1
x[212] 0
x[213] 0
x[214] 0
x[215] 1
x[216] 1
x[217] 1.0000000685336974e+00
x[218] 4.3126081345757874e-07
x[219] 0
x[220] -6.86274508332474e-08
x[221] 1.0000000685502664e+00
x[222] 0
x[223] 1
x[224] 9.9999992156862760e-01
x[225] 1
x[226] 1
x[227] 1
x[228] 1
x[229] 1
x[230] 1
x[231] 0
x[232] 0
x[233] 0
x[234] 0
x[235] 0
x[236] 0
x[237] 1
x[238] 0
x[239] 9.9999978764705921e-01
x[240] 0
x[241] 1
x[242] 0
x[243] 0
x[244] 1
x[245] 0
x[246] 1
x[247] -6.8627450611202789e-08
x[248] 1
x[249] 0
x[250] 0
x[251] 1
x[252] 1
x[253] 0
x[254] 0
x[255] 1
x[256] 0
x[257] 1
x[258] 0
x[259] 0
x[260] 1
x[261] 0
x[262] 1
x[263] 0
x[264] 0
x[265] 1
x[266] 0
x[267] 1
x[268] 0
x[269] 1
x[270] 0.999999571960785
x[271] 0
x[272] 1.0000000685574433e+00
x[273] 1
x[274] 0
x[275] 0
x[276] 1
x[277] 1.0000000685662893e+00
x[278] 0
x[279] 0
x[280] 9.9999957362745151e-01
x[281] 0
x[282] 0
x[283] 1
x[284] 1.0000000685483941e+00
x[285] 0
x[286] 1
x[287] 0
x[288] 0
x[289] 0
x[290] 1
x[291] 1
x[292] 1
x[293] 1
x[294] 1
x[295] 1
x[296] 0
x[297] 1
x[298] 0
x[299] 1.0000000683753902e+00
x[300] 1
x[301] 0
x[302] 1
x[303] 0
x[304] 0
x[305] 1
x[306] 1
x[307] 1
x[308] 1
x[309] 0
x[310] 1
x[311] 1
x[312] 1
x[313] 1
x[314] 0
x[315] 1
x[316] 1
x[317] 1
x[318] 0
x[319] 1
x[320] 1.0000000684950918e+00
x[321] 1
x[322] 1.0000000684891250e+00
x[323] -6.86274508332474e-08
x[324] 0
x[325] 1.0000000685119066e+00
x[326] 1
x[327] 0
x[328] 0
x[329] 0
x[330] 9.9999957310550658e-01
x[331] 0
x[332] 1
x[333] 0
x[334] -6.8627450487227275e-08
x[335] 1.0000000685422026e+00
x[336] 1
x[337] 1
x[338] 0
x[339] 0
x[340] 0
x[341] 0
x[342] 1
x[343] 1
x[344] 1
x[345] 0
x[346] 1
x[347] 1
x[348] 0
x[349] 1
x[350] 0
x[351] 0
x[352] 1
x[353] 1
x[354] 1
x[355] 1
x[356] 1
x[357] 1
x[358] 0
x[359] 0
x[360] 0
x[361] 0
x[362] 1.0000000685481372e+00
x[363] 1
x[364] 0
x[365] 1
x[366] 0
x[367] 1
x[368] 1
x[369] 1.0000000685587336e+00
x[370] 1
x[371] 0
x[372] 0
x[373] 0
x[374] 1
x[375] 0
x[376] 1
x[377] 0
x[378] 1
x[379] 0
x[380] 1
x[381] 1
x[382] 1
x[383] 1.0000000685493977e+00
x[384] 0
x[385] 1
x[386] 0
x[387] -6.5294117289033307e-08
x[388] 0
x[389] 1
x[390] 1
x[391] 0
x[392] 1
x[393] 1
x[394] 0
x[395] 1
x[396] 1
x[397] 1
x[398] 0
x[399] 1.0000000685648038e+00
x[400] 1
x[401] 1
x[402] 0
x[403] 1
x[404] 1
x[405] 1
x[406] 1
x[407] 0
x[408] 0
x[409] 1.0000000684670547e+00
x[410] 1
x[411] 1
x[412] 1
x[413] 1
x[414] 0
x[415] 1
x[416] 1
x[417] 1
x[418] 0
x[419] 0
x[420] 0
x[421] 0
x[422] 1
x[423] 1
x[424] -6.8627450622366644e-08
x[425] -6.8627450611202789e-08
x[426] 0
x[427] 1
x[428] 0
x[429] 1
x[430] 0
x[431] 1
x[432] 0
x[433] 1.0000000685359118e+00
x[434] -6.4772364509013534e-08
x[435] 0
x[436] 1
x[437] 0
x[438] 0
x[439] 1
x[440] 0
x[441] 1.0000000684328436e+00
x[442] -6.86274508332474e-08
x[443] 0
x[444] 0
x[445] 1
x[446] 2.1438396380889491e-07
x[447] 0
x[448] 1
x[449] 9.9999992156862760e-01
x[450] 0
x[451] 1
x[452] 0
x[453] -6.5182083585860189e-08
x[454] 1
x[455] 1
x[456] 0
x[457] 0
x[458] 0
x[459] 0
x[460] 1
x[461] -6.86274508332474e-08
x[462] 1
x[463] 0
x[464] 1.0000000685666739e+00
x[465] 1
x[466] 1
x[467] 0
x[468] 0
x[469] 0
x[470] 1
x[471] 1
x[472] 1
x[473] 0
x[474] 0
x[475] 0
x[476] 1
x[477] 1
x[478] 2.5514574057118784e-07
x[479] 0
x[480] 0
x[481] 1.0000000685215513e+00
x[482] -6.86274508332474e-08
x[483] 0
x[484] 0
x[485] 1.0000000685296728e+00
x[486] 0
x[487] 0
x[488] 0
x[489] 1
x[490] 1
x[491] 0
x[492] 0
x[493] 1
x[494] -1.3725490153628025e-07
x[495] 1
x[496] -6.86274508332474e-08
x[497] 0
x[498] 4.3128936668261885e-07
x[499] 1
x[500] 0
x[501] 1.0000000685365067e+00
x[502] 1
x[503] -6.86274508332474e-08
x[504] 0
x[505] 0
x[506] 0
x[507] 1.0000000684739898e+00
x[508] 1
x[509] 0
x[510] 1
x[511] 0
x[512] 0
x[513] 0
x[514] 1
x[515] 0
x[516] 1
x[517] 0
x[518] 1
x[519] 0
x[520] 1
x[521] 1
x[522] -6.86274508332474e-08
x[523] 0
x[524] 0
x[525] 0
x[526] 0
x[527] 0
x[528] 0
x[529] 0
x[530] 0
x[531] 0
x[532] 1
x[533] 0
x[534] 0
x[535] 1
x[536] 1
x[537] 0
x[538] 1.0000001367568347e+00
x[539] 0
x[540] 1
x[541] 1
x[542] 1
x[543] 1
x[544] 1
x[545] 0
x[546] 1
x[547] 1
x[548] 0
x[549] -6.86274508332474e-08
x[550] 0
x[551] 0
x[552] 1
x[553] 0
x[554] 0
x[555] 0
x[556] -6.5223078939828364e-08
x[557] -6.5161758420638236e-08
x[558] 0
x[559] -6.86274508332474e-08
x[560] 0
x[561] 1
x[562] 0
x[563] 1.00000006829719
x[564] 1
x[565] 1
x[566] 1
x[567] 1
x[568] 1
x[569] 1
x[570] 1
x[571] 1
x[572] 0
x[573] 0
x[574] 1
x[575] 1
x[576] 1
x[577] 1
x[578] 1
x[579] 0
x[580] 1
x[581] 0
x[582] 0
x[583] 0
x[584] 0
x[585] 1
x[586] -6.8627450611202789e-08
x[587] -6.5294117499914058e-08
x[588] 1
x[589] 0
x[590] 0
x[591] 0
x[592] 1
x[593] 0
x[594] 0
x[595] 0
x[596] 0
x[597] 0
x[598] 0
x[599] 0
x[600] 0
x[601] 1
x[602] 0
x[603] 0
x[604] 1
x[605] 0
x[606] 1.0000000684935504e+00
x[607] -6.86274508332474e-08
x[608] 1
x[609] 1
x[610] 0
x[611] 0
x[612] 1
x[613] 0
x[614] 1
x[615] 0
x[616] 0
x[617] 0
x[618] 0
x[619] 1
x[620] 0
x[621] 0
x[622] 0
x[623] 1
x[624] 0
x[625] 0
x[626] 1
x[627] 0
x[628] 0
x[629] 1
x[630] 1
x[631] 0
x[632] 0
x[633] 1
x[634] 0
x[635] 1
x[636] -6.5223079004935631e-08
x[637] 0
x[638] 0
x[639] 0
x[640] 1
x[641] 1
x[642] 9.9999957362745162e-01
x[643] 0
x[644] 1
x[645] 1
x[646] 1
x[647] 1
x[648] 1
x[649] 0
x[650] 0
x[651] 0
x[652] 1
x[653] 1.0000000684957135e+00
x[654] 0
x[655] 1
x[656] 1
x[657] 0
x[658] 0
x[659] 1
x[660] 1
x[661] 0
x[662] 1
x[663] -6.86274508332474e-08
x[664] 0
x[665] 1
x[666] 1
x[667] 1
x[668] 0
x[669] -6.5232955942189113e-08
x[670] 1
x[671] 1
x[672] 1
x[673] 0
x[674] 1.4672917955419484e-07
x[675] -6.86274508332474e-08
x[676] 1
x[677] 1
x[678] 0
x[679] 7.75127975977273e-08
x[680] 0
x[681] 0
x[682] 0
x[683] 0
x[684] 1
x[685] 1
x[686] 1
x[687] 1
x[688] 0
x[689] 0
x[690] 0
x[691] 0
x[692] 0
x[693] 1
x[694] 0
x[695] 1
x[696] 1
x[697] 1
x[698] 1
x[699] 1
x[700] 0
x[701] -6.3627450833247389e-08
x[702] 1.0000000684402885e+00
x[703] 0
x[704] 0
x[705] 0
x[706] 1
x[707] 0
x[708] 1
x[709] 0
x[710] 1
x[711] 1
x[712] 1
x[713] 1
x[714] -6.3627450833247389e-08
x[715] 0
x[716] 1
x[717] 0
x[718] 0
x[719] -6.5294117499914058e-08
x[720] 0
x[721] 1
x[722] 1
x[723] 0
x[724] 1
x[725] 0
x[726] 1
x[727] 1
x[728] 0
x[729] 0
x[730] -6.86274508332474e-08
x[731] 0
x[732] 1
x[733] 0
x[734] 0
x[735] 0
x[736] 0
x[737] 0
x[738] 1
x[739] 4.3125924605164622e-07
x[740] -6.86274508332474e-08
x[741] 0
x[742] 1.0000000683900241e+00
x[743] 0
x[744] 1
x[745] 0
x[746] 0
x[747] 1
x[748] 0
x[749] 0
x[750] 1
x[751] 1
x[752] 0
x[753] 0
x[754] 0
x[755] 0
x[756] 0
x[757] 0
x[758] 0
x[759] 0
x[760] 1
x[761] 0
x[762] 1
x[763] 1
x[764] 1
x[765] 0
x[766] 0
x[767] 1
x[768] -6.5233340561968484e-08
x[769] 1
x[770] 1
x[771] 1
x[772] 0
x[773] 1
x[774] 1
x[775] 0
x[776] -6.86274508332474e-08
x[777] 1
x[778] 1
x[779] 0
x[780] 0
x[781] 1
x[782] 1
x[783] 1
x[784] 0
x[785] 0
x[786] 0
x[787] 7.83445170796211e-08
x[788] 1.0000000683817964e+00
x[789] 1
x[790] 1
x[791] 1
x[792] 0
x[793] -1.3725490126819194e-07
x[794] 0
x[795] 0
x[796] 0
x[797] 0
x[798] 0
x[799] 1.0000000685237236e+00
x[800] 1
x[801] -6.8627450611202789e-08
x[802] 1
x[803] 0
x[804] 1
x[805] 0
x[806] 1
x[807] 0
x[808] 0
x[809] 9.9999981335542865e-01
x[810] 1
x[811] 0
x[812] 0
x[813] 1
x[814] 1
x[815] 0
x[816] 0
x[817] 0
x[818] 0
x[819] 1
x[820] 1
x[821] 1
x[822] 0
x[823] 0
x[824] 1
x[825] 1
x[826] 1
x[827] 0
x[828] 1
x[829] 1
x[830] 1
x[831] 1
x[832] 1
x[833] -6.8627450780964669e-08
x[834] 0
x[835] 1
x[836] 0
x[837] 1
x[838] 0
x[839] 1
x[840] 0
x[841] 0
x[842] 0
x[843] 1
x[844] 0
x[845] -6.5198103736587450e-08
x[846] 0
x[847] 0
x[848] 0
x[849] 0
x[850] 0
x[851] 0
x[852] 0
x[853] 1
x[854] 1
x[855] 0
x[856] 0
x[857] -6.86274508332474e-08
x[858] 1
x[859] 1
x[860] -6.51557917906129e-08
x[861] 0
x[862] 1
x[863] 1
x[864] 1
x[865] 1
x[866] 1
x[867] 1
x[868] 0
x[869] 0
x[870] 0
x[871] 1
x[872] 1
x[873] 1
x[874] 1
x[875] 0
x[876] 1
x[877] 1.0000000684741059e+00
x[878] 1
x[879] 0
x[880] 0
x[881] 0
x[882] 1
x[883] 1
x[884] 0
x[885] 0
x[886] 0
x[887] 1
x[888] 1
x[889] 0
x[890] 0
x[891] 0
x[892] 1
x[893] 1
x[894] 1
x[895] 0
x[896] 1.0000000685604489e+00
x[897] 1
x[898] 1
x[899] 0
x[900] 0
x[901] 0
x[902] 0
x[903] 9.9999978764705932e-01
x[904] 1
x[905] 0
x[906] 1
x[907] 0
x[908] 0
x[909] 1
x[910] 0
x[911] 0
x[912] 0
x[913] 1.0000000685583315e+00
x[914] 0
x[915] 0
x[916] 1.0000001365897808e+00
x[917] 0
x[918] 1
x[919] 0
x[920] 1
x[921] 1
x[922] 1
x[923] 0
x[924] 0
x[925] 1
x[926] 1.0000000685162951e+00
x[927] 1
x[928] 1
x[929] -6.86274508332474e-08
x[930] 0
x[931] 0
x[932] 0
x[933] 0
x[934] -6.8399036538974331e-08
x[935] 0
x[936] 1
x[937] 0
x[938] 1
x[939] 1
x[940] 0
x[941] 0
x[942] 0
x[943] 0
x[944] 0
x[945] -6.3627450833247389e-08
x[946] 0
x[947] 0
x[948] 0
x[949] 1
x[950] 1
x[951] 1
x[952] 1.0000000684750032e+00
x[953] 1
x[954] 1.0000000683269059e+00
x[955] 1
x[956] 1
x[957] 1
x[958] 0
x[959] 0
x[960] 1
x[961] -6.86274508332474e-08
x[962] 1
x[963] 0
x[964] -6.3627450833247389e-08
x[965] 1.0000000685470374e+00
x[966] 0
x[967] 0
x[968] 0
x[969] 1
x[970] 0
x[971] 1
x[972] 0
x[973] 1
x[974] 0
x[975] 1
x[976] 0
x[977] 1
x[978] 0
x[979] 0
x[980] 0
x[981] 0
x[982] 1
x[983] 0
x[984] 0
x[985] 1
x[986] 1
x[987] 1
x[988] 1
x[989] 1
x[990] 0
x[991] 1
x[992] 0
x[993] 1
x[994] -1.9607843274173820e-08
x[995] 1
x[996] 1
x[997] 0
x[998] 1
x[999] 0
